(declare-fun bvlambda_18_ ()Bool         )
(declare-fun a75 () (Array (_ BitVec 1) (_ BitVec 6)))
(assert
(let (($e4 (_ bv3032 13)))
(let (($e5 (_ bv0 5)))
(let (($e7 (_ bv0 11)))
(let (($e245 ((_ extract 6 1) $e4  )))
(let (($e254 (store a75 false          $e245)))
(let (($e270 (concat $e5 false              )))
(let (($e272 (concat $e7 false       )))
(let (($e273 (concat $e272 bvlambda_18_)))
(let (($e274      (bvult $e273        $e4 )         ))
(let (($e275        $e254           ))
(let (($e276 (select $e275 (not   $e274))))
                  (= $e276 $e270)
                                                                                                                                                                                                                                                                                                                                                                                                                                                                                                                                                                                                                                                                                                                                                                                                                                                                                                                                                                                                                                                                              ))))) )               )        )                                                                                                                                                                                                  ) ))   )
